NAME : portcgen-28-32
COMMENT : portcgen N=28, seed=32
TYPE : TSP
DIMENSION : 28
EDGE_WEIGHT_TYPE : EUC_2D
NODE_COORD_SECTION
1 -115142 -355734
2 -12848 -31048
3 -80912 231412
4 190203 -121005
5 -61728 -162612
6 -19302 -161345
7 -59766 142692
8 -6012 60376
9 28712 185226
10 -313284 -48665
11 -249936 43764
12 446251 -187851
13 -261411 28603
14 76108 -108275
15 -93757 -158891
16 -205210 -144837
17 -102724 -111905
18 210665 -106263
19 93891 256591
20 8381 39711
21 38582 -64525
22 141265 30181
23 -64526 50355
24 -49344 9462
25 174075 149612
26 293671 214904
27 88484 -102748
28 -267666 67556
